NAME : iia20
COMMENT : 20 ciudades en circunferencia radio 1000
TYPE : TSP
DIMENSION: 20
EDGE_WEIGHT_TYPE : EUC_2D
NODE_COORD_SECTION
1 2000.0 1000.0
2 1951.0565162951534 1309.0169943749474
3 1809.0169943749474 1587.7852522924732
4 1587.7852522924732 1809.0169943749474
5 1309.0169943749474 1951.0565162951534
6 1000.0000000000001 2000.0
7 690.9830056250527 1951.0565162951536
8 412.21474770752695 1809.0169943749474
9 190.98300562505267 1587.7852522924732
10 48.94348370484647 1309.0169943749474
11 0.0 1000.0000000000001
12 48.94348370484636 690.9830056250528
13 190.98300562505256 412.21474770752695
14 412.2147477075267 190.98300562505267
15 690.9830056250524 48.94348370484647
16 999.9999999999998 0.0
17 1309.0169943749472 48.94348370484636
18 1587.785252292473 190.98300562505244
19 1809.0169943749474 412.2147477075266
20 1951.0565162951534 690.9830056250523
EOF
